c Circuit 2 formula
c This formula represents a digital circuit with logical contradictions
c The circuit configuration contains mutually exclusive requirements
c that make it impossible to satisfy all constraints simultaneously
p cnf 4 10
1 2 0
-1 3 0
-2 -3 0
1 -2 0
2 3 4 0
-3 -4 0
1 4 0
-1 -4 0
3 4 0
-2 4 0